H31 He31 Li1
1.0
10.000000 0.000000 0.000000
0.000000 10.000000 0.000000
0.000000 0.000000 10.000000
H He Li
31 31 1
direct
0.000000 0.000000 0.500000 H
0.000000 0.500000 0.000000 H
0.000000 0.500000 0.500000 H
0.500000 0.000000 0.000000 H
0.500000 0.000000 0.500000 H
0.500000 0.500000 0.000000 H
0.500000 0.500000 0.500000 H
0.000000 0.250000 0.250000 H
0.000000 0.250000 0.750000 H
0.000000 0.750000 0.250000 H
0.000000 0.750000 0.750000 H
0.500000 0.250000 0.250000 H
0.500000 0.250000 0.750000 H
0.500000 0.750000 0.250000 H
0.500000 0.750000 0.750000 H
0.250000 0.000000 0.250000 H
0.250000 0.000000 0.750000 H
0.250000 0.500000 0.250000 H
0.250000 0.500000 0.750000 H
0.750000 0.000000 0.250000 H
0.750000 0.000000 0.750000 H
0.750000 0.500000 0.250000 H
0.750000 0.500000 0.750000 H
0.250000 0.250000 0.000000 H
0.250000 0.250000 0.500000 H
0.250000 0.750000 0.000000 H
0.250000 0.750000 0.500000 H
0.750000 0.250000 0.000000 H
0.750000 0.250000 0.500000 H
0.750000 0.750000 0.000000 H
0.750000 0.750000 0.500000 H
0.250000 0.000000 0.500000 He
0.250000 0.500000 0.000000 He
0.250000 0.500000 0.500000 He
0.750000 0.000000 0.000000 He
0.750000 0.000000 0.500000 He
0.750000 0.500000 0.000000 He
0.750000 0.500000 0.500000 He
0.250000 0.250000 0.250000 He
0.250000 0.250000 0.750000 He
0.250000 0.750000 0.250000 He
0.250000 0.750000 0.750000 He
0.750000 0.250000 0.250000 He
0.750000 0.250000 0.750000 He
0.750000 0.750000 0.250000 He
0.750000 0.750000 0.750000 He
0.000000 0.000000 0.250000 He
0.000000 0.000000 0.750000 He
0.000000 0.500000 0.250000 He
0.000000 0.500000 0.750000 He
0.500000 0.000000 0.250000 He
0.500000 0.000000 0.750000 He
0.500000 0.500000 0.250000 He
0.500000 0.500000 0.750000 He
0.000000 0.250000 0.000000 He
0.000000 0.250000 0.500000 He
0.000000 0.750000 0.000000 He
0.000000 0.750000 0.500000 He
0.500000 0.250000 0.000000 He
0.500000 0.250000 0.500000 He
0.500000 0.750000 0.000000 He
0.500000 0.750000 0.500000 He
0.124000 0.000000 0.000000 Li
