H4 He4
1.0
10.000000 0.000000 0.000000
0.000000 10.000000 0.000000
0.000000 0.000000 10.000000
H He
4 4
direct
0.000000 0.000000 0.000000 H
0.500000 0.500000 0.000000 H
0.500000 0.000000 0.500000 H
0.000000 0.500000 0.500000 H
0.000000 0.000000 0.500000 He
0.000000 0.500000 0.000000 He
0.500000 0.000000 0.000000 He
0.500000 0.500000 0.500000 He
